* ENCODING=ISO-8859-1
NAME          CPLEX
ROWS
 N  obj1    
 G  c1      
 G  c2      
 G  c3      
 G  c4      
 G  c5      
 G  c6      
 G  c7      
 G  c8      
 G  c9      
 G  c10     
 G  c11     
 G  c12     
 G  c13     
 G  c14     
 G  c15     
 G  c16     
 G  c17     
 G  c18     
 G  c19     
 G  c20     
 G  c21     
 G  c22     
 G  c23     
 G  c24     
 G  c25     
 G  c26     
 G  c27     
 G  c28     
 G  c29     
 G  c30     
COLUMNS
    MARK0000  'MARKER'                 'INTORG'
    x1        obj1                            1
    x1        c1                            871
    x1        c8                            992
    x1        c22                           808
    x2        obj1                            1
    x2        c6                            676
    x2        c10                           631
    x2        c15                           359
    x3        obj1                            1
    x3        c18                           446
    x3        c20                           923
    x3        c21                           541
    x3        c28                           231
    x4        obj1                            1
    x4        c2                            134
    x4        c5                            697
    x4        c19                           112
    x4        c25                           859
    x5        obj1                            1
    x5        c3                            857
    x5        c14                           483
    x5        c16                           964
    x5        c18                           513
    x5        c21                           746
    x5        c23                           668
    x5        c29                           960
    x6        obj1                            1
    x6        c1                            540
    x6        c2                            629
    x6        c6                            528
    x7        obj1                            1
    x7        c2                            707
    x7        c3                            800
    x7        c27                           228
    x7        c28                           135
    x8        obj1                            1
    x8        c5                            976
    x9        obj1                            1
    x9        c2                            237
    x9        c4                            203
    x9        c13                           457
    x9        c17                           196
    x9        c22                           945
    x9        c27                           426
    x10       obj1                            1
    x11       obj1                            1
    x11       c4                            141
    x11       c20                           535
    x11       c23                           790
    x12       obj1                            1
    x12       c3                            769
    x12       c7                            351
    x12       c10                           473
    x13       obj1                            1
    x13       c9                            924
    x13       c12                           899
    x14       obj1                            1
    x14       c5                            439
    x14       c19                           731
    x15       obj1                            1
    x15       c7                            903
    x15       c8                            935
    x15       c9                            345
    x15       c23                           957
    x15       c25                           879
    x15       c27                           222
    x16       obj1                            1
    x16       c3                            682
    x16       c11                           985
    x16       c25                           606
    x17       obj1                            1
    x17       c5                            736
    x17       c22                           565
    x18       obj1                            1
    x18       c3                            241
    x19       obj1                            1
    x19       c3                            465
    x19       c11                           567
    x19       c22                           442
    x20       obj1                            1
    x20       c1                            439
    x20       c8                            228
    x21       obj1                            1
    x21       c23                           857
    x22       obj1                            1
    x22       c14                           377
    x22       c15                           237
    x22       c21                           996
    x23       obj1                            1
    x23       c4                            772
    x23       c5                            521
    x23       c8                            200
    x23       c24                           564
    x23       c27                           536
    x23       c30                           509
    x24       obj1                            1
    x25       obj1                            1
    x26       obj1                            1
    x26       c4                            491
    x26       c7                            301
    x26       c17                           486
    x27       obj1                            1
    x27       c15                           266
    x27       c21                           107
    x27       c23                           823
    x27       c26                           234
    x27       c30                           657
    x28       obj1                            1
    x28       c14                           993
    x28       c16                           665
    x28       c26                           821
    x29       obj1                            1
    x30       obj1                            1
    x30       c3                            196
    x30       c7                            480
    x30       c29                           713
    x31       obj1                            1
    x31       c1                            724
    x31       c2                            661
    x32       obj1                            1
    x32       c14                           345
    x32       c17                           487
    x32       c21                           804
    x33       obj1                            1
    x33       c9                            866
    x33       c21                           508
    x33       c25                           572
    x33       c28                           250
    x34       obj1                            1
    x34       c10                           871
    x34       c19                           714
    x35       obj1                            1
    x35       c2                            975
    x35       c15                           182
    x35       c16                           544
    x35       c19                           505
    x36       obj1                            1
    x36       c1                            884
    x36       c11                           877
    x36       c21                           977
    x36       c27                           543
    x37       obj1                            1
    x37       c10                           715
    x37       c12                           108
    x37       c15                           483
    x37       c27                           296
    x38       obj1                            1
    x38       c1                            760
    x38       c15                           350
    x39       obj1                            1
    x39       c5                            881
    x39       c11                           359
    x39       c14                           514
    x39       c20                           534
    x39       c23                           956
    x40       obj1                            1
    x40       c7                            395
    x40       c30                           326
    x41       obj1                            1
    x41       c2                            749
    x41       c24                           800
    x42       obj1                            1
    x42       c15                           675
    x42       c23                           634
    x42       c28                           219
    x43       obj1                            1
    x43       c13                           831
    x43       c28                           307
    x44       obj1                            1
    x44       c18                           603
    x44       c22                           918
    x44       c25                           783
    x45       obj1                            1
    x45       c9                            643
    x46       obj1                            1
    x46       c3                            876
    x46       c8                            666
    x46       c23                           935
    x47       obj1                            1
    x47       c12                           332
    x47       c25                           337
    x48       obj1                            1
    x49       obj1                            1
    x49       c8                            173
    x49       c25                           561
    x49       c27                           357
    x49       c30                           667
    x50       obj1                            1
    x50       c14                           154
    x50       c18                           937
    x51       obj1                            1
    x51       c1                            122
    x51       c11                           467
    x51       c16                           752
    x51       c18                           797
    x51       c25                           943
    x51       c27                           331
    x51       c29                           138
    x52       obj1                            1
    x52       c1                            258
    x53       obj1                            1
    x53       c3                            624
    x53       c4                            742
    x53       c17                           539
    x53       c20                           526
    x54       obj1                            1
    x54       c7                            780
    x54       c11                           278
    x54       c14                           459
    x55       obj1                            1
    x55       c4                            720
    x55       c7                            838
    x55       c18                           803
    x55       c27                           539
    x56       obj1                            1
    x56       c6                            369
    x56       c9                            731
    x56       c13                           341
    x56       c15                           948
    x56       c24                           392
    x57       obj1                            1
    x57       c4                            531
    x57       c9                            491
    x57       c11                           142
    x57       c15                           591
    x57       c22                           776
    x58       obj1                            1
    x58       c1                            844
    x58       c8                            525
    x58       c26                           214
    x59       obj1                            1
    x59       c14                           968
    x59       c17                           739
    x59       c19                           769
    x59       c22                           815
    x60       obj1                            1
    x60       c14                           952
    MARK0001  'MARKER'                 'INTEND'
RHS
    rhs       c1                           2721
    rhs       c2                           2046
    rhs       c3                           2755
    rhs       c4                           1800
    rhs       c5                           2125
    rhs       c6                            787
    rhs       c7                           2024
    rhs       c8                           1860
    rhs       c9                           2000
    rhs       c10                          1345
    rhs       c11                          1838
    rhs       c12                           670
    rhs       c13                           815
    rhs       c14                          2623
    rhs       c15                          2046
    rhs       c16                          1463
    rhs       c17                          1224
    rhs       c18                          2050
    rhs       c19                          1416
    rhs       c20                          1259
    rhs       c21                          2340
    rhs       c22                          2635
    rhs       c23                          3310
    rhs       c24                           878
    rhs       c25                          2770
    rhs       c26                           635
    rhs       c27                          1739
    rhs       c28                           571
    rhs       c29                           906
    rhs       c30                          1080
BOUNDS
 LI bnd       x1        0
 LI bnd       x2        0
 LI bnd       x3        0
 LI bnd       x4        0
 LI bnd       x5        0
 LI bnd       x6        0
 LI bnd       x7        0
 LI bnd       x8        0
 LI bnd       x9        0
 LI bnd       x10       0
 LI bnd       x11       0
 LI bnd       x12       0
 LI bnd       x13       0
 LI bnd       x14       0
 LI bnd       x15       0
 LI bnd       x16       0
 LI bnd       x17       0
 LI bnd       x18       0
 LI bnd       x19       0
 LI bnd       x20       0
 LI bnd       x21       0
 LI bnd       x22       0
 LI bnd       x23       0
 LI bnd       x24       0
 LI bnd       x25       0
 LI bnd       x26       0
 LI bnd       x27       0
 LI bnd       x28       0
 LI bnd       x29       0
 LI bnd       x30       0
 LI bnd       x31       0
 LI bnd       x32       0
 LI bnd       x33       0
 LI bnd       x34       0
 LI bnd       x35       0
 LI bnd       x36       0
 LI bnd       x37       0
 LI bnd       x38       0
 LI bnd       x39       0
 LI bnd       x40       0
 LI bnd       x41       0
 LI bnd       x42       0
 LI bnd       x43       0
 LI bnd       x44       0
 LI bnd       x45       0
 LI bnd       x46       0
 LI bnd       x47       0
 LI bnd       x48       0
 LI bnd       x49       0
 LI bnd       x50       0
 LI bnd       x51       0
 LI bnd       x52       0
 LI bnd       x53       0
 LI bnd       x54       0
 LI bnd       x55       0
 LI bnd       x56       0
 LI bnd       x57       0
 LI bnd       x58       0
 LI bnd       x59       0
 LI bnd       x60       0
ENDATA
